(set-info :source |printed by MathSAT|)
(declare-fun call_moesi.ite34.next () Int)
(declare-fun erreur_mo.next () Bool)
(declare-fun call_moesi.ite21.next () Int)
(declare-fun shared_mo.next () Int)
(declare-fun call_moesi.exclusive_mo.next () Int)
(declare-fun call_moesi.ite7.next () Int)
(declare-fun owned_mo () Int)
(declare-fun call_moesi.flby3.next () Int)
(declare-fun env () Bool)
(declare-fun call_moesi.flby () Bool)
(declare-fun call_moesi.ite4.next () Int)
(declare-fun call_moesi.ite29.next () Int)
(declare-fun call_moesi.ite13 () Int)
(declare-fun call_moesi.ite12.next () Int)
(declare-fun call_moesi.ite18.next () Int)
(declare-fun call_moesi.ite28 () Int)
(declare-fun _OK_.next () Bool)
(declare-fun param_etat_mo4 () Bool)
(declare-fun call_moesi.shared_mo () Int)
(declare-fun call_moesi.owned_mo.next () Int)
(declare-fun call_moesi.ite.next () Int)
(declare-fun call_moesi.ite15.next () Int)
(declare-fun call_moesi.erreur_mo () Bool)
(declare-fun modified_mo.next () Int)
(declare-fun invalid_mo.next () Int)
(declare-fun call_moesi.ite24 () Int)
(declare-fun param_etat_mo3 () Bool)
(declare-fun call_moesi.erreur_mo.next () Bool)
(declare-fun call_moesi.ite32 () Int)
(declare-fun call_moesi.ite22.next () Int)
(declare-fun call_moesi.modified_mo.next () Int)
(declare-fun call_moesi.ite3.next () Int)
(declare-fun call_moesi.flby4 () Int)
(declare-fun call_moesi.ite25.next () Int)
(declare-fun call_moesi.ite24.next () Int)
(declare-fun exclusive_mo () Int)
(declare-fun call_moesi.ite3 () Int)
(declare-fun call_moesi.ite28.next () Int)
(declare-fun call_moesi.ite26 () Int)
(declare-fun call_moesi.ite () Int)
(declare-fun call_moesi.ite21 () Int)
(declare-fun call_moesi.ite32.next () Int)
(declare-fun invalid_mo () Int)
(declare-fun owned_mo.next () Int)
(declare-fun param_etat_mo1 () Bool)
(declare-fun call_moesi.flby5.next () Int)
(declare-fun call_moesi.ite15 () Int)
(declare-fun modified_mo () Int)
(declare-fun call_moesi.flby5 () Int)
(declare-fun call_moesi.flby6 () Int)
(declare-fun call_Sofar.Sofar.next () Bool)
(declare-fun call_moesi.ite20 () Int)
(declare-fun call_moesi.ite2.next () Int)
(declare-fun call_moesi.ite26.next () Int)
(declare-fun call_moesi.flby.next () Bool)
(declare-fun flby.next () Bool)
(declare-fun call_moesi.ite10 () Int)
(declare-fun call_moesi.ite33 () Int)
(declare-fun call_moesi.exclusive_mo () Int)
(declare-fun call_moesi.garde_mo1.next () Bool)
(declare-fun call_moesi.ite16.next () Int)
(declare-fun call_Sofar.flby () Bool)
(declare-fun call_moesi.ite33.next () Int)
(declare-fun call_moesi.ite17 () Int)
(declare-fun call_excludes4.excludes () Bool)
(declare-fun call_moesi.ite19.next () Int)
(declare-fun call_moesi.ite31.next () Int)
(declare-fun param_etat_mo4.next () Bool)
(declare-fun call_moesi.ite23.next () Int)
(declare-fun call_moesi.ite10.next () Int)
(declare-fun call_moesi.ite18 () Int)
(declare-fun env.next () Bool)
(declare-fun call_moesi.flby6.next () Int)
(declare-fun call_moesi.ite29 () Int)
(declare-fun shared_mo () Int)
(declare-fun call_moesi.ite6.next () Int)
(declare-fun call_moesi.ite16 () Int)
(declare-fun call_moesi.ite8.next () Int)
(declare-fun call_moesi.ite5.next () Int)
(declare-fun call_moesi.owned_mo () Int)
(declare-fun call_moesi.invalid_mo.next () Int)
(declare-fun flby () Bool)
(declare-fun call_moesi.ite30.next () Int)
(declare-fun call_moesi.ite27 () Int)
(declare-fun call_moesi.ite9 () Int)
(declare-fun call_moesi.ite7 () Int)
(declare-fun call_moesi.ite17.next () Int)
(declare-fun call_Sofar.Sofar () Bool)
(declare-fun call_moesi.flby3 () Int)
(declare-fun call_moesi.ite27.next () Int)
(declare-fun call_moesi.flby4.next () Int)
(declare-fun call_moesi.ite5 () Int)
(declare-fun call_moesi.ite22 () Int)
(declare-fun call_Sofar.flby.next () Bool)
(declare-fun call_excludes4.excludes.next () Bool)
(declare-fun call_moesi.modified_mo () Int)
(declare-fun call_moesi.ite2 () Int)
(declare-fun call_moesi.garde_mo2.next () Bool)
(declare-fun call_moesi.garde_mo4.next () Bool)
(declare-fun _OK_ () Bool)
(declare-fun call_moesi.garde_mo3.next () Bool)
(declare-fun call_moesi.ite11 () Int)
(declare-fun call_moesi.ite13.next () Int)
(declare-fun param_etat_mo1.next () Bool)
(declare-fun param_etat_mo2 () Bool)
(declare-fun call_moesi.invalid_mo () Int)
(declare-fun call_moesi.ite34 () Int)
(declare-fun call_moesi.flby2.next () Int)
(declare-fun call_moesi.ite9.next () Int)
(declare-fun call_moesi.ite23 () Int)
(declare-fun call_moesi.ite14 () Int)
(declare-fun call_moesi.ite30 () Int)
(declare-fun exclusive_mo.next () Int)
(declare-fun call_moesi.ite11.next () Int)
(declare-fun call_moesi.flby2 () Int)
(declare-fun call_moesi.ite20.next () Int)
(declare-fun call_moesi.ite14.next () Int)
(declare-fun erreur_mo () Bool)
(declare-fun param_etat_mo3.next () Bool)
(declare-fun call_moesi.shared_mo.next () Int)
(declare-fun param_etat_mo2.next () Bool)
(declare-fun call_moesi.ite8 () Int)
(declare-fun call_moesi.ite6 () Int)
(define-fun .def_1342 () Bool (= call_Sofar.flby.next call_Sofar.Sofar.next))
(define-fun .def_1337 () Bool (and param_etat_mo4.next param_etat_mo3.next))
(define-fun .def_1335 () Bool (and param_etat_mo4.next param_etat_mo2.next))
(define-fun .def_1333 () Bool (and param_etat_mo2.next param_etat_mo3.next))
(define-fun .def_1331 () Bool (and param_etat_mo4.next param_etat_mo1.next))
(define-fun .def_1329 () Bool (and param_etat_mo1.next param_etat_mo3.next))
(define-fun .def_1328 () Bool (and param_etat_mo2.next param_etat_mo1.next))
(define-fun .def_1330 () Bool (or .def_1328 .def_1329))
(define-fun .def_1332 () Bool (or .def_1330 .def_1331))
(define-fun .def_1334 () Bool (or .def_1332 .def_1333))
(define-fun .def_1336 () Bool (or .def_1334 .def_1335))
(define-fun .def_1338 () Bool (or .def_1336 .def_1337))
(define-fun .def_1339 () Bool (not .def_1338))
(define-fun .def_1340 () Bool (= call_excludes4.excludes.next .def_1339))
(define-fun .def_1326 () Bool (= call_moesi.flby.next call_moesi.erreur_mo.next))
(define-fun .def_1324 () Bool (= call_moesi.flby6.next call_moesi.owned_mo.next))
(define-fun .def_1322 () Bool (= call_moesi.flby5.next call_moesi.invalid_mo.next))
(define-fun .def_1320 () Bool (= call_moesi.flby4.next call_moesi.shared_mo.next))
(define-fun .def_1318 () Bool (= call_moesi.exclusive_mo.next call_moesi.flby3.next))
(define-fun .def_1316 () Bool (= call_moesi.flby2.next call_moesi.modified_mo.next))
(define-fun .def_1314 () Bool (= env.next call_Sofar.Sofar.next))
(define-fun .def_1311 () Bool (= erreur_mo.next call_moesi.erreur_mo.next))
(define-fun .def_1307 () Bool (= owned_mo.next call_moesi.owned_mo.next))
(define-fun .def_1304 () Bool (= invalid_mo.next call_moesi.invalid_mo.next))
(define-fun .def_1301 () Bool (= shared_mo.next call_moesi.shared_mo.next))
(define-fun .def_1298 () Bool (= exclusive_mo.next call_moesi.exclusive_mo.next))
(define-fun .def_1296 () Bool (= modified_mo.next call_moesi.modified_mo.next))
(define-fun .def_1291 () Bool (not env.next))
(define-fun .def_1292 () Bool (or flby.next .def_1291))
(define-fun .def_1293 () Bool (= _OK_.next .def_1292))
(define-fun .def_1285 () Bool (= call_moesi.ite32.next call_moesi.ite33.next))
(define-fun .def_1286 () Bool (or param_etat_mo3.next .def_1285))
(define-fun .def_1282 () Bool (= call_moesi.ite30.next call_moesi.ite33.next))
(define-fun .def_1261 () Bool (not param_etat_mo3.next))
(define-fun .def_1283 () Bool (or .def_1261 .def_1282))
(define-fun .def_1279 () Bool (= call_moesi.ite26.next call_moesi.ite27.next))
(define-fun .def_1280 () Bool (or param_etat_mo3.next .def_1279))
(define-fun .def_1276 () Bool (= call_moesi.ite24.next call_moesi.ite27.next))
(define-fun .def_1277 () Bool (or .def_1261 .def_1276))
(define-fun .def_1273 () Bool (= call_moesi.ite20.next call_moesi.ite21.next))
(define-fun .def_1274 () Bool (or param_etat_mo3.next .def_1273))
(define-fun .def_1270 () Bool (= call_moesi.ite18.next call_moesi.ite21.next))
(define-fun .def_1271 () Bool (or .def_1261 .def_1270))
(define-fun .def_1267 () Bool (= call_moesi.ite13.next call_moesi.ite14.next))
(define-fun .def_1268 () Bool (or param_etat_mo3.next .def_1267))
(define-fun .def_1264 () Bool (= call_moesi.ite11.next call_moesi.ite14.next))
(define-fun .def_1265 () Bool (or .def_1261 .def_1264))
(define-fun .def_1260 () Bool (= call_moesi.ite3.next call_moesi.ite6.next))
(define-fun .def_1262 () Bool (or .def_1260 .def_1261))
(define-fun .def_1257 () Bool (= call_moesi.ite5.next call_moesi.ite6.next))
(define-fun .def_1259 () Bool (or .def_1257 param_etat_mo3.next))
(define-fun .def_1263 () Bool (and .def_1259 .def_1262))
(define-fun .def_1266 () Bool (and .def_1263 .def_1265))
(define-fun .def_1269 () Bool (and .def_1266 .def_1268))
(define-fun .def_1272 () Bool (and .def_1269 .def_1271))
(define-fun .def_1275 () Bool (and .def_1272 .def_1274))
(define-fun .def_1278 () Bool (and .def_1275 .def_1277))
(define-fun .def_1281 () Bool (and .def_1278 .def_1280))
(define-fun .def_1284 () Bool (and .def_1281 .def_1283))
(define-fun .def_1287 () Bool (and .def_1284 .def_1286))
(define-fun .def_1253 () Bool (= call_moesi.ite34.next call_moesi.ite33.next))
(define-fun .def_1254 () Bool (or param_etat_mo1.next .def_1253))
(define-fun .def_1249 () Bool (= call_moesi.ite29.next call_moesi.ite34.next))
(define-fun .def_1226 () Bool (not param_etat_mo1.next))
(define-fun .def_1250 () Bool (or .def_1226 .def_1249))
(define-fun .def_1246 () Bool (= call_moesi.ite28.next call_moesi.ite27.next))
(define-fun .def_1247 () Bool (or param_etat_mo1.next .def_1246))
(define-fun .def_1242 () Bool (= call_moesi.ite23.next call_moesi.ite28.next))
(define-fun .def_1243 () Bool (or .def_1226 .def_1242))
(define-fun .def_1239 () Bool (= call_moesi.ite22.next call_moesi.ite21.next))
(define-fun .def_1240 () Bool (or param_etat_mo1.next .def_1239))
(define-fun .def_1235 () Bool (= call_moesi.ite17.next call_moesi.ite22.next))
(define-fun .def_1236 () Bool (or .def_1226 .def_1235))
(define-fun .def_1232 () Bool (= call_moesi.ite16.next call_moesi.ite15.next))
(define-fun .def_1233 () Bool (or param_etat_mo1.next .def_1232))
(define-fun .def_1229 () Bool (= call_moesi.ite9.next call_moesi.ite16.next))
(define-fun .def_1230 () Bool (or .def_1226 .def_1229))
(define-fun .def_1225 () Bool (= call_moesi.ite.next call_moesi.ite8.next))
(define-fun .def_1227 () Bool (or .def_1225 .def_1226))
(define-fun .def_1222 () Bool (= call_moesi.ite8.next call_moesi.ite7.next))
(define-fun .def_1224 () Bool (or .def_1222 param_etat_mo1.next))
(define-fun .def_1228 () Bool (and .def_1224 .def_1227))
(define-fun .def_1231 () Bool (and .def_1228 .def_1230))
(define-fun .def_1234 () Bool (and .def_1231 .def_1233))
(define-fun .def_1237 () Bool (and .def_1234 .def_1236))
(define-fun .def_1241 () Bool (and .def_1237 .def_1240))
(define-fun .def_1244 () Bool (and .def_1241 .def_1243))
(define-fun .def_1248 () Bool (and .def_1244 .def_1247))
(define-fun .def_1251 () Bool (and .def_1248 .def_1250))
(define-fun .def_1255 () Bool (and .def_1251 .def_1254))
(define-fun .def_1219 () Bool (= call_moesi.ite15.next call_moesi.ite14.next))
(define-fun .def_1220 () Bool (or param_etat_mo2.next .def_1219))
(define-fun .def_1215 () Bool (= call_moesi.ite10.next call_moesi.ite15.next))
(define-fun .def_1211 () Bool (not param_etat_mo2.next))
(define-fun .def_1216 () Bool (or .def_1211 .def_1215))
(define-fun .def_1210 () Bool (= call_moesi.ite2.next call_moesi.ite7.next))
(define-fun .def_1212 () Bool (or .def_1210 .def_1211))
(define-fun .def_1207 () Bool (= call_moesi.ite7.next call_moesi.ite6.next))
(define-fun .def_1209 () Bool (or .def_1207 param_etat_mo2.next))
(define-fun .def_1213 () Bool (and .def_1209 .def_1212))
(define-fun .def_1217 () Bool (and .def_1213 .def_1216))
(define-fun .def_1221 () Bool (and .def_1217 .def_1220))
(define-fun .def_1256 () Bool (and .def_1221 .def_1255))
(define-fun .def_1288 () Bool (and .def_1256 .def_1287))
(define-fun .def_1294 () Bool (and .def_1288 .def_1293))
(define-fun .def_1297 () Bool (and .def_1294 .def_1296))
(define-fun .def_1299 () Bool (and .def_1297 .def_1298))
(define-fun .def_1302 () Bool (and .def_1299 .def_1301))
(define-fun .def_1305 () Bool (and .def_1302 .def_1304))
(define-fun .def_1308 () Bool (and .def_1305 .def_1307))
(define-fun .def_1312 () Bool (and .def_1308 .def_1311))
(define-fun .def_1315 () Bool (and .def_1312 .def_1314))
(define-fun .def_1317 () Bool (and .def_1315 .def_1316))
(define-fun .def_1319 () Bool (and .def_1317 .def_1318))
(define-fun .def_1321 () Bool (and .def_1319 .def_1320))
(define-fun .def_1323 () Bool (and .def_1321 .def_1322))
(define-fun .def_1325 () Bool (and .def_1323 .def_1324))
(define-fun .def_1327 () Bool (and .def_1325 .def_1326))
(define-fun .def_1341 () Bool (and .def_1327 .def_1340))
(define-fun .def_1343 () Bool (and .def_1341 .def_1342))
(define-fun .def_927 () Bool (= call_Sofar.flby call_Sofar.Sofar))
(define-fun .def_922 () Bool (and param_etat_mo4 param_etat_mo3))
(define-fun .def_920 () Bool (and param_etat_mo4 param_etat_mo2))
(define-fun .def_918 () Bool (and param_etat_mo2 param_etat_mo3))
(define-fun .def_916 () Bool (and param_etat_mo4 param_etat_mo1))
(define-fun .def_914 () Bool (and param_etat_mo1 param_etat_mo3))
(define-fun .def_913 () Bool (and param_etat_mo2 param_etat_mo1))
(define-fun .def_915 () Bool (or .def_913 .def_914))
(define-fun .def_917 () Bool (or .def_915 .def_916))
(define-fun .def_919 () Bool (or .def_917 .def_918))
(define-fun .def_921 () Bool (or .def_919 .def_920))
(define-fun .def_923 () Bool (or .def_921 .def_922))
(define-fun .def_924 () Bool (not .def_923))
(define-fun .def_925 () Bool (= call_excludes4.excludes .def_924))
(define-fun .def_911 () Bool (= call_moesi.flby call_moesi.erreur_mo))
(define-fun .def_909 () Bool (= call_moesi.flby6 call_moesi.owned_mo))
(define-fun .def_907 () Bool (= call_moesi.flby5 call_moesi.invalid_mo))
(define-fun .def_905 () Bool (= call_moesi.flby4 call_moesi.shared_mo))
(define-fun .def_903 () Bool (= call_moesi.flby3 call_moesi.exclusive_mo))
(define-fun .def_901 () Bool (= call_moesi.flby2 call_moesi.modified_mo))
(define-fun .def_899 () Bool (= env call_Sofar.Sofar))
(define-fun .def_896 () Bool (= erreur_mo call_moesi.erreur_mo))
(define-fun .def_892 () Bool (= owned_mo call_moesi.owned_mo))
(define-fun .def_888 () Bool (= invalid_mo call_moesi.invalid_mo))
(define-fun .def_884 () Bool (= shared_mo call_moesi.shared_mo))
(define-fun .def_880 () Bool (= exclusive_mo call_moesi.exclusive_mo))
(define-fun .def_876 () Bool (= modified_mo call_moesi.modified_mo))
(define-fun .def_870 () Bool (not env))
(define-fun .def_871 () Bool (or flby .def_870))
(define-fun .def_872 () Bool (= _OK_ .def_871))
(define-fun .def_864 () Bool (= call_moesi.ite32 call_moesi.ite33))
(define-fun .def_865 () Bool (or param_etat_mo3 .def_864))
(define-fun .def_861 () Bool (= call_moesi.ite30 call_moesi.ite33))
(define-fun .def_839 () Bool (not param_etat_mo3))
(define-fun .def_862 () Bool (or .def_839 .def_861))
(define-fun .def_858 () Bool (= call_moesi.ite26 call_moesi.ite27))
(define-fun .def_859 () Bool (or param_etat_mo3 .def_858))
(define-fun .def_855 () Bool (= call_moesi.ite27 call_moesi.ite24))
(define-fun .def_856 () Bool (or .def_839 .def_855))
(define-fun .def_851 () Bool (= call_moesi.ite20 call_moesi.ite21))
(define-fun .def_852 () Bool (or param_etat_mo3 .def_851))
(define-fun .def_848 () Bool (= call_moesi.ite18 call_moesi.ite21))
(define-fun .def_849 () Bool (or .def_839 .def_848))
(define-fun .def_845 () Bool (= call_moesi.ite13 call_moesi.ite14))
(define-fun .def_846 () Bool (or param_etat_mo3 .def_845))
(define-fun .def_842 () Bool (= call_moesi.ite11 call_moesi.ite14))
(define-fun .def_843 () Bool (or .def_839 .def_842))
(define-fun .def_838 () Bool (= call_moesi.ite3 call_moesi.ite6))
(define-fun .def_840 () Bool (or .def_838 .def_839))
(define-fun .def_835 () Bool (= call_moesi.ite5 call_moesi.ite6))
(define-fun .def_837 () Bool (or .def_835 param_etat_mo3))
(define-fun .def_841 () Bool (and .def_837 .def_840))
(define-fun .def_844 () Bool (and .def_841 .def_843))
(define-fun .def_847 () Bool (and .def_844 .def_846))
(define-fun .def_850 () Bool (and .def_847 .def_849))
(define-fun .def_853 () Bool (and .def_850 .def_852))
(define-fun .def_857 () Bool (and .def_853 .def_856))
(define-fun .def_860 () Bool (and .def_857 .def_859))
(define-fun .def_863 () Bool (and .def_860 .def_862))
(define-fun .def_866 () Bool (and .def_863 .def_865))
(define-fun .def_831 () Bool (= call_moesi.ite34 call_moesi.ite33))
(define-fun .def_832 () Bool (or param_etat_mo1 .def_831))
(define-fun .def_827 () Bool (= call_moesi.ite29 call_moesi.ite34))
(define-fun .def_797 () Bool (not param_etat_mo1))
(define-fun .def_828 () Bool (or .def_797 .def_827))
(define-fun .def_822 () Bool (= call_moesi.ite28 call_moesi.ite27))
(define-fun .def_823 () Bool (or param_etat_mo1 .def_822))
(define-fun .def_818 () Bool (= call_moesi.ite23 call_moesi.ite28))
(define-fun .def_819 () Bool (or .def_797 .def_818))
(define-fun .def_813 () Bool (= call_moesi.ite22 call_moesi.ite21))
(define-fun .def_814 () Bool (or param_etat_mo1 .def_813))
(define-fun .def_809 () Bool (= call_moesi.ite17 call_moesi.ite22))
(define-fun .def_810 () Bool (or .def_797 .def_809))
(define-fun .def_804 () Bool (= call_moesi.ite15 call_moesi.ite16))
(define-fun .def_805 () Bool (or param_etat_mo1 .def_804))
(define-fun .def_801 () Bool (= call_moesi.ite9 call_moesi.ite16))
(define-fun .def_802 () Bool (or .def_797 .def_801))
(define-fun .def_796 () Bool (= call_moesi.ite call_moesi.ite8))
(define-fun .def_798 () Bool (or .def_796 .def_797))
(define-fun .def_793 () Bool (= call_moesi.ite7 call_moesi.ite8))
(define-fun .def_795 () Bool (or .def_793 param_etat_mo1))
(define-fun .def_799 () Bool (and .def_795 .def_798))
(define-fun .def_803 () Bool (and .def_799 .def_802))
(define-fun .def_806 () Bool (and .def_803 .def_805))
(define-fun .def_811 () Bool (and .def_806 .def_810))
(define-fun .def_815 () Bool (and .def_811 .def_814))
(define-fun .def_820 () Bool (and .def_815 .def_819))
(define-fun .def_824 () Bool (and .def_820 .def_823))
(define-fun .def_829 () Bool (and .def_824 .def_828))
(define-fun .def_833 () Bool (and .def_829 .def_832))
(define-fun .def_789 () Bool (= call_moesi.ite15 call_moesi.ite14))
(define-fun .def_790 () Bool (or param_etat_mo2 .def_789))
(define-fun .def_785 () Bool (= call_moesi.ite10 call_moesi.ite15))
(define-fun .def_780 () Bool (not param_etat_mo2))
(define-fun .def_786 () Bool (or .def_780 .def_785))
(define-fun .def_779 () Bool (= call_moesi.ite7 call_moesi.ite2))
(define-fun .def_781 () Bool (or .def_779 .def_780))
(define-fun .def_775 () Bool (= call_moesi.ite7 call_moesi.ite6))
(define-fun .def_777 () Bool (or .def_775 param_etat_mo2))
(define-fun .def_782 () Bool (and .def_777 .def_781))
(define-fun .def_787 () Bool (and .def_782 .def_786))
(define-fun .def_791 () Bool (and .def_787 .def_790))
(define-fun .def_834 () Bool (and .def_791 .def_833))
(define-fun .def_867 () Bool (and .def_834 .def_866))
(define-fun .def_873 () Bool (and .def_867 .def_872))
(define-fun .def_877 () Bool (and .def_873 .def_876))
(define-fun .def_881 () Bool (and .def_877 .def_880))
(define-fun .def_885 () Bool (and .def_881 .def_884))
(define-fun .def_889 () Bool (and .def_885 .def_888))
(define-fun .def_893 () Bool (and .def_889 .def_892))
(define-fun .def_897 () Bool (and .def_893 .def_896))
(define-fun .def_900 () Bool (and .def_897 .def_899))
(define-fun .def_902 () Bool (and .def_900 .def_901))
(define-fun .def_904 () Bool (and .def_902 .def_903))
(define-fun .def_906 () Bool (and .def_904 .def_905))
(define-fun .def_908 () Bool (and .def_906 .def_907))
(define-fun .def_910 () Bool (and .def_908 .def_909))
(define-fun .def_912 () Bool (and .def_910 .def_911))
(define-fun .def_926 () Bool (and .def_912 .def_925))
(define-fun .def_928 () Bool (and .def_926 .def_927))
(define-fun .def_1344 () Bool (and .def_928 .def_1343))
(define-fun .def_1201 () Bool (and call_Sofar.Sofar call_excludes4.excludes.next))
(define-fun .def_1203 () Bool (= .def_1201 call_Sofar.flby.next))
(define-fun .def_1198 () Bool (= call_moesi.ite34.next call_moesi.flby6.next))
(define-fun .def_1194 () Bool (= call_moesi.ite28.next call_moesi.flby5.next))
(define-fun .def_1190 () Bool (= call_moesi.ite22.next call_moesi.flby4.next))
(define-fun .def_1186 () Bool (= call_moesi.ite16.next call_moesi.flby3.next))
(define-fun .def_1182 () Bool (= call_moesi.ite8.next call_moesi.flby2.next))
(define-fun .def_1176 () Bool (<= 2 call_moesi.exclusive_mo.next))
(define-fun .def_1178 () Bool (= .def_1176 call_moesi.flby.next))
(define-fun .def_1138 () Bool (<= 1 call_moesi.invalid_mo))
(define-fun .def_1172 () Bool (= call_moesi.garde_mo4.next .def_1138))
(define-fun .def_1169 () Bool (= call_moesi.ite31.next 0))
(define-fun .def_1055 () Bool (not call_moesi.garde_mo4.next))
(define-fun .def_1170 () Bool (or .def_1055 .def_1169))
(define-fun .def_1166 () Bool (= call_moesi.ite19.next 0))
(define-fun .def_1167 () Bool (or .def_1055 .def_1166))
(define-fun .def_1163 () Bool (= call_moesi.ite4.next 0))
(define-fun .def_1164 () Bool (or .def_1055 .def_1163))
(define-fun .def_1161 () Bool (= call_moesi.ite12.next 1))
(define-fun .def_1162 () Bool (or .def_1055 .def_1161))
(define-fun .def_1165 () Bool (and .def_1162 .def_1164))
(define-fun .def_1168 () Bool (and .def_1165 .def_1167))
(define-fun .def_1171 () Bool (and .def_1168 .def_1170))
(define-fun .def_1173 () Bool (and .def_1171 .def_1172))
(define-fun .def_1156 () Int (+ call_moesi.shared_mo call_moesi.owned_mo))
(define-fun .def_1157 () Bool (<= 2 .def_1156))
(define-fun .def_1158 () Bool (= call_moesi.garde_mo3.next .def_1157))
(define-fun .def_1153 () Bool (= call_moesi.ite30.next 0))
(define-fun .def_1040 () Bool (not call_moesi.garde_mo3.next))
(define-fun .def_1154 () Bool (or .def_1040 .def_1153))
(define-fun .def_1150 () Bool (= call_moesi.ite18.next 0))
(define-fun .def_1151 () Bool (or .def_1040 .def_1150))
(define-fun .def_1147 () Bool (= call_moesi.ite3.next 0))
(define-fun .def_1148 () Bool (or .def_1040 .def_1147))
(define-fun .def_1145 () Bool (= call_moesi.ite11.next 1))
(define-fun .def_1146 () Bool (or .def_1040 .def_1145))
(define-fun .def_1149 () Bool (and .def_1146 .def_1148))
(define-fun .def_1152 () Bool (and .def_1149 .def_1151))
(define-fun .def_1155 () Bool (and .def_1152 .def_1154))
(define-fun .def_1159 () Bool (and .def_1155 .def_1158))
(define-fun .def_1142 () Bool (<= 1 call_moesi.exclusive_mo))
(define-fun .def_1143 () Bool (= call_moesi.garde_mo2.next .def_1142))
(define-fun .def_1139 () Bool (= call_moesi.garde_mo1.next .def_1138))
(define-fun .def_1135 () Bool (= call_moesi.ite.next 0))
(define-fun .def_1065 () Bool (not call_moesi.garde_mo1.next))
(define-fun .def_1136 () Bool (or .def_1065 .def_1135))
(define-fun .def_1133 () Bool (= call_moesi.ite9.next 0))
(define-fun .def_1134 () Bool (or .def_1065 .def_1133))
(define-fun .def_1137 () Bool (and .def_1134 .def_1136))
(define-fun .def_1140 () Bool (and .def_1137 .def_1139))
(define-fun .def_1129 () Bool (= call_moesi.owned_mo call_moesi.ite31.next))
(define-fun .def_1130 () Bool (or call_moesi.garde_mo4.next .def_1129))
(define-fun .def_1126 () Bool (= call_moesi.owned_mo call_moesi.ite29.next))
(define-fun .def_1127 () Bool (or call_moesi.garde_mo1.next .def_1126))
(define-fun .def_1124 () Bool (= call_moesi.owned_mo call_moesi.ite30.next))
(define-fun .def_1125 () Bool (or call_moesi.garde_mo3.next .def_1124))
(define-fun .def_1128 () Bool (and .def_1125 .def_1127))
(define-fun .def_1131 () Bool (and .def_1128 .def_1130))
(define-fun .def_1119 () Bool (= call_moesi.invalid_mo call_moesi.ite25.next))
(define-fun .def_1120 () Bool (or call_moesi.garde_mo4.next .def_1119))
(define-fun .def_1116 () Bool (= call_moesi.invalid_mo call_moesi.ite24.next))
(define-fun .def_1117 () Bool (or call_moesi.garde_mo3.next .def_1116))
(define-fun .def_1111 () Int (* (- 1) call_moesi.ite23.next))
(define-fun .def_1112 () Int (+ call_moesi.invalid_mo .def_1111))
(define-fun .def_1113 () Bool (= .def_1112 1))
(define-fun .def_1114 () Bool (or .def_1065 .def_1113))
(define-fun .def_1109 () Bool (= call_moesi.invalid_mo call_moesi.ite23.next))
(define-fun .def_1110 () Bool (or call_moesi.garde_mo1.next .def_1109))
(define-fun .def_1115 () Bool (and .def_1110 .def_1114))
(define-fun .def_1118 () Bool (and .def_1115 .def_1117))
(define-fun .def_1121 () Bool (and .def_1118 .def_1120))
(define-fun .def_1104 () Bool (= call_moesi.shared_mo call_moesi.ite19.next))
(define-fun .def_1105 () Bool (or call_moesi.garde_mo4.next .def_1104))
(define-fun .def_1101 () Bool (= call_moesi.shared_mo call_moesi.ite17.next))
(define-fun .def_1102 () Bool (or call_moesi.garde_mo1.next .def_1101))
(define-fun .def_1099 () Bool (= call_moesi.shared_mo call_moesi.ite18.next))
(define-fun .def_1100 () Bool (or call_moesi.garde_mo3.next .def_1099))
(define-fun .def_1103 () Bool (and .def_1100 .def_1102))
(define-fun .def_1106 () Bool (and .def_1103 .def_1105))
(define-fun .def_1089 () Int (* (- 1) call_moesi.ite17.next))
(define-fun .def_1092 () Int (+ call_moesi.shared_mo .def_1089))
(define-fun .def_1093 () Int (+ call_moesi.exclusive_mo .def_1092))
(define-fun .def_1094 () Bool (= .def_1093 (- 2)))
(define-fun .def_1095 () Bool (or .def_1065 .def_1094))
(define-fun .def_1085 () Bool (= call_moesi.exclusive_mo call_moesi.ite12.next))
(define-fun .def_1086 () Bool (or call_moesi.garde_mo4.next .def_1085))
(define-fun .def_1082 () Bool (= call_moesi.exclusive_mo call_moesi.ite11.next))
(define-fun .def_1083 () Bool (or call_moesi.garde_mo3.next .def_1082))
(define-fun .def_1078 () Bool (= call_moesi.exclusive_mo call_moesi.ite10.next))
(define-fun .def_1079 () Bool (or call_moesi.garde_mo2.next .def_1078))
(define-fun .def_1075 () Bool (= call_moesi.exclusive_mo call_moesi.ite9.next))
(define-fun .def_1076 () Bool (or call_moesi.garde_mo1.next .def_1075))
(define-fun .def_1070 () Int (* (- 1) call_moesi.ite10.next))
(define-fun .def_1071 () Int (+ call_moesi.exclusive_mo .def_1070))
(define-fun .def_1072 () Bool (= .def_1071 1))
(define-fun .def_1008 () Bool (not call_moesi.garde_mo2.next))
(define-fun .def_1073 () Bool (or .def_1008 .def_1072))
(define-fun .def_1077 () Bool (and .def_1073 .def_1076))
(define-fun .def_1080 () Bool (and .def_1077 .def_1079))
(define-fun .def_1084 () Bool (and .def_1080 .def_1083))
(define-fun .def_1087 () Bool (and .def_1084 .def_1086))
(define-fun .def_1096 () Bool (and .def_1087 .def_1095))
(define-fun .def_1059 () Int (* (- 1) call_moesi.ite29.next))
(define-fun .def_1062 () Int (+ call_moesi.owned_mo .def_1059))
(define-fun .def_1063 () Int (+ call_moesi.modified_mo .def_1062))
(define-fun .def_1064 () Bool (= .def_1063 0))
(define-fun .def_1066 () Bool (or .def_1064 .def_1065))
(define-fun .def_1043 () Int (* (- 1) call_moesi.ite25.next))
(define-fun .def_1049 () Int (+ call_moesi.owned_mo .def_1043))
(define-fun .def_1050 () Int (+ call_moesi.invalid_mo .def_1049))
(define-fun .def_1051 () Int (+ call_moesi.shared_mo .def_1050))
(define-fun .def_1052 () Int (+ call_moesi.exclusive_mo .def_1051))
(define-fun .def_1053 () Int (+ call_moesi.modified_mo .def_1052))
(define-fun .def_1054 () Bool (= .def_1053 1))
(define-fun .def_1056 () Bool (or .def_1054 .def_1055))
(define-fun .def_1028 () Int (* (- 1) call_moesi.ite24.next))
(define-fun .def_1034 () Int (+ call_moesi.owned_mo .def_1028))
(define-fun .def_1035 () Int (+ call_moesi.invalid_mo .def_1034))
(define-fun .def_1036 () Int (+ call_moesi.shared_mo .def_1035))
(define-fun .def_1037 () Int (+ call_moesi.exclusive_mo .def_1036))
(define-fun .def_1038 () Int (+ call_moesi.modified_mo .def_1037))
(define-fun .def_1039 () Bool (= .def_1038 1))
(define-fun .def_1041 () Bool (or .def_1039 .def_1040))
(define-fun .def_1023 () Bool (= call_moesi.modified_mo call_moesi.ite4.next))
(define-fun .def_1025 () Bool (or .def_1023 call_moesi.garde_mo4.next))
(define-fun .def_1019 () Bool (= call_moesi.modified_mo call_moesi.ite3.next))
(define-fun .def_1021 () Bool (or .def_1019 call_moesi.garde_mo3.next))
(define-fun .def_1015 () Bool (= call_moesi.modified_mo call_moesi.ite2.next))
(define-fun .def_1016 () Bool (or call_moesi.garde_mo2.next .def_1015))
(define-fun .def_1011 () Bool (= call_moesi.modified_mo call_moesi.ite.next))
(define-fun .def_1013 () Bool (or .def_1011 call_moesi.garde_mo1.next))
(define-fun .def_1004 () Int (* (- 1) call_moesi.ite2.next))
(define-fun .def_1005 () Int (+ call_moesi.modified_mo .def_1004))
(define-fun .def_1006 () Bool (= .def_1005 (- 1)))
(define-fun .def_1009 () Bool (or .def_1006 .def_1008))
(define-fun .def_1014 () Bool (and .def_1009 .def_1013))
(define-fun .def_1017 () Bool (and .def_1014 .def_1016))
(define-fun .def_1022 () Bool (and .def_1017 .def_1021))
(define-fun .def_1026 () Bool (and .def_1022 .def_1025))
(define-fun .def_1042 () Bool (and .def_1026 .def_1041))
(define-fun .def_1057 () Bool (and .def_1042 .def_1056))
(define-fun .def_1067 () Bool (and .def_1057 .def_1066))
(define-fun .def_999 () Bool (= call_moesi.owned_mo call_moesi.ite32.next))
(define-fun .def_1000 () Bool (or param_etat_mo4.next .def_999))
(define-fun .def_996 () Bool (= call_moesi.ite31.next call_moesi.ite32.next))
(define-fun .def_967 () Bool (not param_etat_mo4.next))
(define-fun .def_997 () Bool (or .def_967 .def_996))
(define-fun .def_991 () Bool (= call_moesi.invalid_mo call_moesi.ite26.next))
(define-fun .def_992 () Bool (or param_etat_mo4.next .def_991))
(define-fun .def_988 () Bool (= call_moesi.ite25.next call_moesi.ite26.next))
(define-fun .def_989 () Bool (or .def_967 .def_988))
(define-fun .def_983 () Bool (= call_moesi.shared_mo call_moesi.ite20.next))
(define-fun .def_984 () Bool (or param_etat_mo4.next .def_983))
(define-fun .def_980 () Bool (= call_moesi.ite19.next call_moesi.ite20.next))
(define-fun .def_981 () Bool (or .def_967 .def_980))
(define-fun .def_975 () Bool (= call_moesi.exclusive_mo call_moesi.ite13.next))
(define-fun .def_976 () Bool (or param_etat_mo4.next .def_975))
(define-fun .def_972 () Bool (= call_moesi.ite12.next call_moesi.ite13.next))
(define-fun .def_973 () Bool (or .def_967 .def_972))
(define-fun .def_966 () Bool (= call_moesi.ite5.next call_moesi.ite4.next))
(define-fun .def_968 () Bool (or .def_966 .def_967))
(define-fun .def_962 () Bool (= call_moesi.modified_mo call_moesi.ite5.next))
(define-fun .def_964 () Bool (or .def_962 param_etat_mo4.next))
(define-fun .def_969 () Bool (and .def_964 .def_968))
(define-fun .def_974 () Bool (and .def_969 .def_973))
(define-fun .def_977 () Bool (and .def_974 .def_976))
(define-fun .def_982 () Bool (and .def_977 .def_981))
(define-fun .def_985 () Bool (and .def_982 .def_984))
(define-fun .def_990 () Bool (and .def_985 .def_989))
(define-fun .def_993 () Bool (and .def_990 .def_992))
(define-fun .def_998 () Bool (and .def_993 .def_997))
(define-fun .def_1001 () Bool (and .def_998 .def_1000))
(define-fun .def_942 () Int (* (- 1) owned_mo.next))
(define-fun .def_939 () Int (* (- 1) invalid_mo.next))
(define-fun .def_949 () Int (+ .def_939 .def_942))
(define-fun .def_936 () Int (* (- 1) shared_mo.next))
(define-fun .def_950 () Int (+ .def_936 .def_949))
(define-fun .def_933 () Int (* (- 1) exclusive_mo.next))
(define-fun .def_951 () Int (+ .def_933 .def_950))
(define-fun .def_931 () Int (* (- 1) modified_mo.next))
(define-fun .def_952 () Int (+ .def_931 .def_951))
(define-fun .def_953 () Int (+ owned_mo .def_952))
(define-fun .def_954 () Int (+ invalid_mo .def_953))
(define-fun .def_955 () Int (+ shared_mo .def_954))
(define-fun .def_956 () Int (+ exclusive_mo .def_955))
(define-fun .def_957 () Int (+ modified_mo .def_956))
(define-fun .def_958 () Bool (= .def_957 0))
(define-fun .def_960 () Bool (= .def_958 flby.next))
(define-fun .def_1002 () Bool (and .def_960 .def_1001))
(define-fun .def_1068 () Bool (and .def_1002 .def_1067))
(define-fun .def_1097 () Bool (and .def_1068 .def_1096))
(define-fun .def_1107 () Bool (and .def_1097 .def_1106))
(define-fun .def_1122 () Bool (and .def_1107 .def_1121))
(define-fun .def_1132 () Bool (and .def_1122 .def_1131))
(define-fun .def_1141 () Bool (and .def_1132 .def_1140))
(define-fun .def_1144 () Bool (and .def_1141 .def_1143))
(define-fun .def_1160 () Bool (and .def_1144 .def_1159))
(define-fun .def_1174 () Bool (and .def_1160 .def_1173))
(define-fun .def_1179 () Bool (and .def_1174 .def_1178))
(define-fun .def_1183 () Bool (and .def_1179 .def_1182))
(define-fun .def_1187 () Bool (and .def_1183 .def_1186))
(define-fun .def_1191 () Bool (and .def_1187 .def_1190))
(define-fun .def_1195 () Bool (and .def_1191 .def_1194))
(define-fun .def_1199 () Bool (and .def_1195 .def_1198))
(define-fun .def_1204 () Bool (and .def_1199 .def_1203))
(define-fun .def_1345 () Bool (and .def_1204 .def_1344))
(assert .def_1345)
